(set-logic QF_NRA)
(declare-fun skoY () Real)
(declare-fun pi () Real)
(declare-fun skoX () Real)
(assert (and (not (<= (+ (* (- 43589145600) (* skoY skoY)) (* 3632428800 (* skoY skoY skoY skoY)) (* (- 121080960) (* skoY skoY skoY skoY skoY skoY)) (* 2162160 (* skoY skoY skoY skoY skoY skoY skoY skoY)) (* (- 24024) (* skoY skoY skoY skoY skoY skoY skoY skoY skoY skoY)) (* 182 (* skoY skoY skoY skoY skoY skoY skoY skoY skoY skoY skoY skoY)) (* (- 1) (* skoY skoY skoY skoY skoY skoY skoY skoY skoY skoY skoY skoY skoY skoY))) (- 87178291200))) (and (not (<= (+ (* 316352583106560000 (* skoY skoY)) (* (- 105450861035520000) (* skoY skoY skoY skoY)) (* 14060114804736000 (* skoY skoY skoY skoY skoY skoY)) (* (- 1004293914624000) (* skoY skoY skoY skoY skoY skoY skoY skoY)) (* 44635285094400 (* skoY skoY skoY skoY skoY skoY skoY skoY skoY skoY)) (* (- 1351923955200) (* skoY skoY skoY skoY skoY skoY skoY skoY skoY skoY skoY skoY)) (* 29393280000 (* skoY skoY skoY skoY skoY skoY skoY skoY skoY skoY skoY skoY skoY skoY)) (* (- 466089120) (* skoY skoY skoY skoY skoY skoY skoY skoY skoY skoY skoY skoY skoY skoY skoY skoY)) (* 5392800 (* skoY skoY skoY skoY skoY skoY skoY skoY skoY skoY skoY skoY skoY skoY skoY skoY skoY skoY)) (* (- 45444) (* skoY skoY skoY skoY skoY skoY skoY skoY skoY skoY skoY skoY skoY skoY skoY skoY skoY skoY skoY skoY)) (* 272 (* skoY skoY skoY skoY skoY skoY skoY skoY skoY skoY skoY skoY skoY skoY skoY skoY skoY skoY skoY skoY skoY skoY)) (* (- 1) (* skoY skoY skoY skoY skoY skoY skoY skoY skoY skoY skoY skoY skoY skoY skoY skoY skoY skoY skoY skoY skoY skoY skoY skoY))) 0)) (and (not (<= (+ skoY (* (- 1) skoX)) 0)) (and (<= (* (- 10) skoX) (- 1)) (and (not (<= (* (- 10000000) pi) (- 31415927))) (and (not (<= (* 5000000 pi) 15707963)) (<= (+ (* 10 skoY) (* (- 5) pi)) (- 2)))))))))
(set-info :status sat)
(check-sat)
